%oldchk=test101a
#p test cis geom=check

CIS job of formaldehyde.

0 1



